 &control
    calculation = 'scf'
    restart_mode='from_scratch',
    prefix='copper',
    pseudo_dir = '/home/espresso/pslibrary.1.0.0/pz/PSEUDOPOTENTIALS/',
    outdir='/scratch/RUNNING_QE/QE680_TPW151/tempdir/'
 /
 &system
    ibrav=  2, 
    celldm(1) =6.82, 
    nat=  1, 
    ntyp= 1,
    smearing='mp'
    degauss=0.01,
    occupations='smearing'
    ecutwfc =40.0,
    ecutrho =300,
 /
 &electrons
    conv_thr =  1.0d-8
 /
ATOMIC_SPECIES
 Cu  0.0  Cu.pz-dn-kjpaw_psl.0.2.UPF
ATOMIC_POSITIONS (alat)
 Cu 0.00 0.00 0.00
K_POINTS AUTOMATIC
4 4 4 1 1 1 
