 &control
    calculation = 'scf'
    restart_mode='from_scratch',
    prefix='silicon',
    tstress = .true.
    tprnfor = .true.
    pseudo_dir = '/home/espresso/QE66_2/pseudo/',
    outdir='/home/espresso/QE66_2/tempdir/'
 /
 &system
    ibrav=  2, celldm(1) =10.26, nat=  2, ntyp= 1,
    ecutwfc =25.0,
 /
 &electrons
    conv_thr =  1.0d-10
 /
ATOMIC_SPECIES
Si  28.086   Si.pz-vbc.UPF
ATOMIC_POSITIONS (alat)
Si 0.00 0.00 0.00
Si 0.25 0.25 0.25
K_POINTS AUTOMATIC
4 4 4 1 1 1 
