el1='Zr'
el2='C'
name='zrc_b1'

mkdir $WORK_DIR/$name

cat > $WORK_DIR/$name/$name.d <<EOF
$el1
$el2
 &control
    calculation = 'scf'
    prefix='$name',
    pseudo_dir = '$PSEUDO_DIR',
    outdir='$TMP_DIR'
 /
 &system
    ibrav=  2, 
    celldm(1) =$zrc_b1, 
    nat=  2, 
    ntyp= 2,
    noncolin=$ncol,
    lspinorb=$lso,
    occupations='smearing',
    smearing='$smearing_type',
    degauss=$degauss
    ecutwfc =$ecutwfc,
    ecutrho =$ecutrho
 /
 &electrons
    conv_thr =  1.0d-10
 /
ATOMIC_SPECIES
$el1  0.0    $pseudo_zr
$el2  0.0    $pseudo_c
ATOMIC_POSITIONS
$el1  0.000000   0.0000000   0.000000
$el2  0.500000   0.5000000   0.500000
K_POINTS AUTOMATIC
$nk $nk $nk $ish $ish $ish
EOF


