
 &control
   calculation = 'scf'
   prefix='silicon',
   pseudo_dir = '/scratch/dalcorso_sissa/espresso_jan_2014/pseudo/',
   outdir='/scratch/dalcorso_sissa/espresso_jan_2014/tempdir/'
 /
 &system
   ibrav= 2, 
   celldm(1)= 10.20, 
   nat=2, 
   ntyp=1,
   ecutwfc=24.0,
 /
 &electrons
    conv_thr =  1.0d-8
 /
ATOMIC_SPECIES
 Si  28.086  Si.pz-vbc.UPF
ATOMIC_POSITIONS
 Si 0.00 0.00 0.00
 Si 0.25 0.25 0.25
K_POINTS AUTOMATIC
2 2 2 1 1 1 
