 &control
    calculation = 'scf'
    restart_mode='from_scratch',
    prefix='carbon',
    pseudo_dir = '/home/espresso/pslibrary.1.0.0/pz/PSEUDOPOTENTIALS//',
    outdir='/home/espresso/QE64_TRIS/tempdir/'
 /
 &system
    ibrav = 2, 
    celldm(1) =6.74, 
    nat=  2, 
    ntyp= 1,
    ecutwfc = 40.0
    ecutrho = 300.0
 /
 &electrons
    conv_thr =  1.0d-12
 /
ATOMIC_SPECIES
C   0.0  C.pz-n-rrkjus_psl.0.1.UPF
ATOMIC_POSITIONS {crystal}
C 0.0 0.0 0.0
C 0.25 0.25 0.25
K_POINTS {automatic}
 2 2 2 1 1 1
