 &INPUT_THERMO
  what='mur_lc_disp',
  nq1_d=6, nq2_d=6, nq3_d=6,
 /
 &control
   calculation = 'scf'
   prefix='silicon',
   pseudo_dir = '/scratch/dalcorso_sissa/espresso_jan_2014/pseudo/',
   outdir='/scratch/dalcorso_sissa/espresso_jan_2014/tempdir/'
 /
 &system
   ibrav= 2, 
   celldm(1) =10.20, 
   nat= 2, 
   ntyp= 1,
   ecutwfc =24.0,
 /
 &electrons
    conv_thr =  1.0d-8
 /
ATOMIC_SPECIES
 Si  28.086  Si.pz-vbc.UPF
ATOMIC_POSITIONS
 Si 0.00 0.00 0.00
 Si 0.25 0.25 0.25
K_POINTS AUTOMATIC
4 4 4 1 1 1 
---
ciao
 &inputph
  tr2_ph=1.0d-12,
  prefix='silicon',
  fildyn='si.dyn.xml',
  ldisp=.TRUE.
  nq1=2, nq2=2, nq3=2,
/
