ph_title
 &inputph
  tr2_ph=1.0d-12,
  prefix='aluminum',
  fildyn='al.dyn.xml',
  ldisp=.TRUE.
  nq1=2, nq2=2, nq3=2,
/
