&inputph
  tr2_ph=1.0d-12,
  prefix='aluminum'
  freq_line=.true.
  epsil=.true.,
  trans=.false.,
  fpol=.true.,
 /
0.621 0.0 0.0

FREQUENCIES
100
0.01  0.1
3.6   0.1
