el1='Kr'
name='kr_a1'

mkdir $WORK_DIR/$name

cat > $WORK_DIR/$name/$name.d <<EOF
$el1
$el1
 &control
    calculation = 'scf'
    prefix='$el1',
    pseudo_dir = '$PSEUDO_DIR',
    outdir='$TMP_DIR'
 /
 &system
    ibrav=  2, 
    celldm(1) =$kr_a1, 
    nat=  1, 
    ntyp= 1,
    ecutwfc =$ecutwfc,
    ecutrho =$ecutrho
    noncolin=$ncol,
    lspinorb=$lso,
 /
 &electrons
    conv_thr =  1.0d-10
 /
ATOMIC_SPECIES
$el1  0.0    $pseudo_kr
ATOMIC_POSITIONS
$el1  0.0000000   0.00000000   0.0
K_POINTS AUTOMATIC
$nki $nki $nki $ish $ish $ish
EOF

