 &control
  calculation = 'scf'
  prefix='silicon',
  pseudo_dir = '/home/espresso/pslibrary.1.0.0/rel-pz/PSEUDOPOTENTIALS//',
  outdir='/scratch/tmp_e//'
 /
 &system
  ibrav=4
  celldm(1)=      5.32309985
  celldm(3)=     15.51343504
  nat=    15
  ntyp= 1,
  ecutwfc =24.0,
  occupations='smearing'
  smearing='mp'
  degauss=0.02
 /
 &electrons
  conv_thr =  1.0d-8
 /
ATOMIC_SPECIES
 Al  0.0  Al.pz-vbc.UPF
ATOMIC_POSITIONS {crystal}
Al     -0.6666666666667    -0.3333333333333    -0.3684210526316  0  0  0
Al      0.0000000000000     0.0000000000000    -0.3157894736842  0  0  0
Al      0.6666666666667     0.3333333333333    -0.2631578947368  0  0  0
Al     -0.6666666666667    -0.3333333333333    -0.2105263157895  0  0  0
Al      0.0000000000000     0.0000000000000    -0.1578947368421  0  0  0
Al      0.6666666666667     0.3333333333333    -0.1052631578947  0  0  0
Al     -0.6666666666667    -0.3333333333333    -0.0526315789474  0  0  0
Al      0.0000000000000     0.0000000000000     0.0000000000000  0  0  0
Al      0.6666666666667     0.3333333333333     0.0526315789474  0  0  0
Al     -0.6666666666667    -0.3333333333333     0.1052631578947  0  0  0
Al      0.0000000000000     0.0000000000000     0.1578947368421  0  0  0
Al      0.6666666666667     0.3333333333333     0.2105263157895  0  0  0
Al     -0.6666666666667    -0.3333333333333     0.2631578947368  0  0  0
Al      0.0000000000000     0.0000000000000     0.3157894736842  0  0  0
Al      0.6666666666667     0.3333333333333     0.3684210526316  0  0  0
K_POINTS AUTOMATIC
4 4 1 1 1 0 
