 &INPUT_THERMO
  what='scf_ph',
 /
 &control
    calculation = 'scf'
    restart_mode='from_scratch',
    prefix='silicon',
    tstress = .true.
    tprnfor = .true.
    pseudo_dir = '/scratch/dalcorso_sissa/espresso_jan_2014/pseudo/',
    outdir='/scratch/dalcorso_sissa/espresso_jan_2014/tempdir/'
 /
 &system
    ibrav=  2, celldm(1) =10.20, nat=  2, ntyp= 1,
    ecutwfc =24.0,
 /
 &electrons
    mixing_mode = 'plain'
    mixing_beta = 0.7
    conv_thr =  1.0d-8
 /
ATOMIC_SPECIES
 Si  28.086  Si.pz-vbc.UPF
ATOMIC_POSITIONS
 Si 0.00 0.00 0.00
 Si 0.25 0.25 0.25
K_POINTS AUTOMATIC
4 4 4 1 1 1 
---
ciao
 &inputph
  tr2_ph=1.0d-12,
  prefix='silicon',
  fildyn='si.dyn',
/
1.0 0.0 0.0 1.
