el1='Ga'
el2='Bi'
name='gabi_b3'

mkdir $name
cd $name

cat > $name.d <<EOF
$el1
$el2
 &control
    calculation = 'scf'
    prefix='$name',
    pseudo_dir = '$PSEUDO_DIR',
    outdir='$TMP_DIR'
 /
 &system
    ibrav=  2, 
    celldm(1) =$gabi_b3, 
    nat=  2, 
    ntyp= 2,
    noncolin=$ncol,
    lspinorb=$lso,
    degauss=$degauss
    occupations='smearing',
    smearing='$smearing_type',
    ecutwfc =$ecutwfc,
    ecutrho =$ecutrho
 /
 &electrons
    conv_thr =  1.0d-10
 /
ATOMIC_SPECIES
$el1  0.0    $pseudo_ga
$el2  0.0    $pseudo_bi
ATOMIC_POSITIONS
$el1  0.0000000   0.00000000   0.0
$el2  0.2500000   0.25000000   0.25
K_POINTS AUTOMATIC
$nk $nk $nk $ish $ish $ish
EOF

cd ..

