
 &inputph
  tr2_ph=1.0d-14,
  prefix='ni',
  fildyn='ni.dyn.xml',
  ldisp=.TRUE.
  nq1=2
  nq2=2
  nq3=2
  verbosity='high'
/
