 &control
  calculation = 'scf'
  prefix='silicon',
  pseudo_dir = '/home/espresso/pslibrary.1.0.0/rel-pz/PSEUDOPOTENTIALS//',
  outdir='/scratch/tmp_e//'
 /
 &system
  ibrav=4
  celldm(1)=      5.32309985
  celldm(3)=      2.44948974
  nat=     3
  ntyp= 1,
  ecutwfc =24.0,
  occupations='smearing'
  smearing='mp'
  degauss=0.02
 /
 &electrons
  conv_thr =  1.0d-8
 /
ATOMIC_SPECIES
 Al  0.0  Al.pz-vbc.UPF
ATOMIC_POSITIONS {crystal}
Al      0.6666666666667     0.3333333333333    -0.3333333333333  0  0  0
Al      0.0000000000000     0.0000000000000     0.0000000000000  0  0  0
Al     -0.6666666666667    -0.3333333333333     0.3333333333333  0  0  0
K_POINTS AUTOMATIC
4 4 1 1 1 0 
